c File: flat50_3_0.col
c
c SOURCE: Joseph Culberson (joe@cs.ualberta.ca)
c DESCRIPTION: Quasi-random coloring problem
c              generated with flatness = 0
c                             probability = 0.139
c                             known coloring = 3
c                             random seed = 1264
c              Creation Date:  Tue Jun  9 12:05:07 1998
c Maximum degree = 8 Minimum degree = 1
c p edge 50 115
c cnf created by edge2cnf
p cnf 150 545
-1 -2 0
-1 -3 0
-2 -3 0
1 2 3 0
-4 -5 0
-4 -6 0
-5 -6 0
4 5 6 0
-7 -8 0
-7 -9 0
-8 -9 0
7 8 9 0
-10 -11 0
-10 -12 0
-11 -12 0
10 11 12 0
-13 -14 0
-13 -15 0
-14 -15 0
13 14 15 0
-16 -17 0
-16 -18 0
-17 -18 0
16 17 18 0
-19 -20 0
-19 -21 0
-20 -21 0
19 20 21 0
-22 -23 0
-22 -24 0
-23 -24 0
22 23 24 0
-25 -26 0
-25 -27 0
-26 -27 0
25 26 27 0
-28 -29 0
-28 -30 0
-29 -30 0
28 29 30 0
-31 -32 0
-31 -33 0
-32 -33 0
31 32 33 0
-34 -35 0
-34 -36 0
-35 -36 0
34 35 36 0
-37 -38 0
-37 -39 0
-38 -39 0
37 38 39 0
-40 -41 0
-40 -42 0
-41 -42 0
40 41 42 0
-43 -44 0
-43 -45 0
-44 -45 0
43 44 45 0
-46 -47 0
-46 -48 0
-47 -48 0
46 47 48 0
-49 -50 0
-49 -51 0
-50 -51 0
49 50 51 0
-52 -53 0
-52 -54 0
-53 -54 0
52 53 54 0
-55 -56 0
-55 -57 0
-56 -57 0
55 56 57 0
-58 -59 0
-58 -60 0
-59 -60 0
58 59 60 0
-61 -62 0
-61 -63 0
-62 -63 0
61 62 63 0
-64 -65 0
-64 -66 0
-65 -66 0
64 65 66 0
-67 -68 0
-67 -69 0
-68 -69 0
67 68 69 0
-70 -71 0
-70 -72 0
-71 -72 0
70 71 72 0
-73 -74 0
-73 -75 0
-74 -75 0
73 74 75 0
-76 -77 0
-76 -78 0
-77 -78 0
76 77 78 0
-79 -80 0
-79 -81 0
-80 -81 0
79 80 81 0
-82 -83 0
-82 -84 0
-83 -84 0
82 83 84 0
-85 -86 0
-85 -87 0
-86 -87 0
85 86 87 0
-88 -89 0
-88 -90 0
-89 -90 0
88 89 90 0
-91 -92 0
-91 -93 0
-92 -93 0
91 92 93 0
-94 -95 0
-94 -96 0
-95 -96 0
94 95 96 0
-97 -98 0
-97 -99 0
-98 -99 0
97 98 99 0
-100 -101 0
-100 -102 0
-101 -102 0
100 101 102 0
-103 -104 0
-103 -105 0
-104 -105 0
103 104 105 0
-106 -107 0
-106 -108 0
-107 -108 0
106 107 108 0
-109 -110 0
-109 -111 0
-110 -111 0
109 110 111 0
-112 -113 0
-112 -114 0
-113 -114 0
112 113 114 0
-115 -116 0
-115 -117 0
-116 -117 0
115 116 117 0
-118 -119 0
-118 -120 0
-119 -120 0
118 119 120 0
-121 -122 0
-121 -123 0
-122 -123 0
121 122 123 0
-124 -125 0
-124 -126 0
-125 -126 0
124 125 126 0
-127 -128 0
-127 -129 0
-128 -129 0
127 128 129 0
-130 -131 0
-130 -132 0
-131 -132 0
130 131 132 0
-133 -134 0
-133 -135 0
-134 -135 0
133 134 135 0
-136 -137 0
-136 -138 0
-137 -138 0
136 137 138 0
-139 -140 0
-139 -141 0
-140 -141 0
139 140 141 0
-142 -143 0
-142 -144 0
-143 -144 0
142 143 144 0
-145 -146 0
-145 -147 0
-146 -147 0
145 146 147 0
-148 -149 0
-148 -150 0
-149 -150 0
148 149 150 0
-55 -1 0
-56 -2 0
-57 -3 0
-61 -1 0
-62 -2 0
-63 -3 0
-70 -1 0
-71 -2 0
-72 -3 0
-91 -1 0
-92 -2 0
-93 -3 0
-118 -1 0
-119 -2 0
-120 -3 0
-130 -1 0
-131 -2 0
-132 -3 0
-136 -1 0
-137 -2 0
-138 -3 0
-139 -1 0
-140 -2 0
-141 -3 0
-73 -4 0
-74 -5 0
-75 -6 0
-94 -4 0
-95 -5 0
-96 -6 0
-100 -4 0
-101 -5 0
-102 -6 0
-121 -4 0
-122 -5 0
-123 -6 0
-130 -4 0
-131 -5 0
-132 -6 0
-55 -7 0
-56 -8 0
-57 -9 0
-91 -7 0
-92 -8 0
-93 -9 0
-97 -7 0
-98 -8 0
-99 -9 0
-100 -7 0
-101 -8 0
-102 -9 0
-103 -7 0
-104 -8 0
-105 -9 0
-145 -7 0
-146 -8 0
-147 -9 0
-148 -7 0
-149 -8 0
-150 -9 0
-52 -10 0
-53 -11 0
-54 -12 0
-61 -10 0
-62 -11 0
-63 -12 0
-103 -10 0
-104 -11 0
-105 -12 0
-133 -10 0
-134 -11 0
-135 -12 0
-148 -10 0
-149 -11 0
-150 -12 0
-58 -13 0
-59 -14 0
-60 -15 0
-67 -13 0
-68 -14 0
-69 -15 0
-115 -13 0
-116 -14 0
-117 -15 0
-148 -13 0
-149 -14 0
-150 -15 0
-67 -16 0
-68 -17 0
-69 -18 0
-88 -16 0
-89 -17 0
-90 -18 0
-112 -16 0
-113 -17 0
-114 -18 0
-133 -16 0
-134 -17 0
-135 -18 0
-73 -19 0
-74 -20 0
-75 -21 0
-82 -19 0
-83 -20 0
-84 -21 0
-88 -19 0
-89 -20 0
-90 -21 0
-115 -19 0
-116 -20 0
-117 -21 0
-130 -19 0
-131 -20 0
-132 -21 0
-79 -22 0
-80 -23 0
-81 -24 0
-115 -22 0
-116 -23 0
-117 -24 0
-85 -25 0
-86 -26 0
-87 -27 0
-121 -25 0
-122 -26 0
-123 -27 0
-130 -25 0
-131 -26 0
-132 -27 0
-64 -28 0
-65 -29 0
-66 -30 0
-88 -28 0
-89 -29 0
-90 -30 0
-109 -28 0
-110 -29 0
-111 -30 0
-124 -28 0
-125 -29 0
-126 -30 0
-55 -31 0
-56 -32 0
-57 -33 0
-67 -31 0
-68 -32 0
-69 -33 0
-91 -31 0
-92 -32 0
-93 -33 0
-118 -31 0
-119 -32 0
-120 -33 0
-127 -31 0
-128 -32 0
-129 -33 0
-133 -31 0
-134 -32 0
-135 -33 0
-139 -31 0
-140 -32 0
-141 -33 0
-55 -34 0
-56 -35 0
-57 -36 0
-79 -34 0
-80 -35 0
-81 -36 0
-109 -34 0
-110 -35 0
-111 -36 0
-118 -34 0
-119 -35 0
-120 -36 0
-139 -34 0
-140 -35 0
-141 -36 0
-91 -37 0
-92 -38 0
-93 -39 0
-73 -40 0
-74 -41 0
-75 -42 0
-103 -40 0
-104 -41 0
-105 -42 0
-58 -43 0
-59 -44 0
-60 -45 0
-85 -43 0
-86 -44 0
-87 -45 0
-88 -43 0
-89 -44 0
-90 -45 0
-118 -43 0
-119 -44 0
-120 -45 0
-133 -43 0
-134 -44 0
-135 -45 0
-58 -46 0
-59 -47 0
-60 -48 0
-76 -46 0
-77 -47 0
-78 -48 0
-127 -46 0
-128 -47 0
-129 -48 0
-145 -46 0
-146 -47 0
-147 -48 0
-52 -49 0
-53 -50 0
-54 -51 0
-73 -49 0
-74 -50 0
-75 -51 0
-82 -49 0
-83 -50 0
-84 -51 0
-85 -49 0
-86 -50 0
-87 -51 0
-103 -49 0
-104 -50 0
-105 -51 0
-136 -49 0
-137 -50 0
-138 -51 0
-103 -52 0
-104 -53 0
-105 -54 0
-115 -52 0
-116 -53 0
-117 -54 0
-124 -52 0
-125 -53 0
-126 -54 0
-121 -55 0
-122 -56 0
-123 -57 0
-142 -55 0
-143 -56 0
-144 -57 0
-109 -58 0
-110 -59 0
-111 -60 0
-142 -58 0
-143 -59 0
-144 -60 0
-121 -64 0
-122 -65 0
-123 -66 0
-124 -67 0
-125 -68 0
-126 -69 0
-127 -67 0
-128 -68 0
-129 -69 0
-136 -67 0
-137 -68 0
-138 -69 0
-130 -70 0
-131 -71 0
-132 -72 0
-139 -70 0
-140 -71 0
-141 -72 0
-109 -73 0
-110 -74 0
-111 -75 0
-121 -73 0
-122 -74 0
-123 -75 0
-130 -73 0
-131 -74 0
-132 -75 0
-145 -73 0
-146 -74 0
-147 -75 0
-118 -76 0
-119 -77 0
-120 -78 0
-136 -76 0
-137 -77 0
-138 -78 0
-133 -79 0
-134 -80 0
-135 -81 0
-142 -79 0
-143 -80 0
-144 -81 0
-118 -82 0
-119 -83 0
-120 -84 0
-142 -82 0
-143 -83 0
-144 -84 0
-112 -85 0
-113 -86 0
-114 -87 0
-115 -85 0
-116 -86 0
-117 -87 0
-103 -88 0
-104 -89 0
-105 -90 0
-121 -88 0
-122 -89 0
-123 -90 0
-139 -88 0
-140 -89 0
-141 -90 0
-145 -88 0
-146 -89 0
-147 -90 0
-109 -91 0
-110 -92 0
-111 -93 0
-139 -91 0
-140 -92 0
-141 -93 0
-127 -94 0
-128 -95 0
-129 -96 0
-133 -94 0
-134 -95 0
-135 -96 0
-145 -94 0
-146 -95 0
-147 -96 0
-106 -97 0
-107 -98 0
-108 -99 0
-109 -100 0
-110 -101 0
-111 -102 0
-118 -100 0
-119 -101 0
-120 -102 0
-133 -100 0
-134 -101 0
-135 -102 0
